c random formula
p cnf 10 30
3 6 0
7 2 0
2 4 0
-9 4 0
-9 -10 0
8 7 0
5 10 0
-9 -3 0
-5 4 0
10 -8 0
-8 -9 0
8 5 0
-6 -2 0
9 6 0
9 -10 0
-7 9 0
2 -4 0
4 7 0
-5 10 0
5 -1 0
-3 10 0
-6 -2 0
-2 5 0
6 2 0
-8 -3 0
-1 -7 0
7 2 0
10 3 0
-7 4 0
-4 -8 0
